100 8
310 175
900 457
700 383
198 610
328 60
592 440
624 439
109 560
853 650
778 543
287 31
776 498
765 897
710 425
274 558
266 767
338 334
898 458
345 771
405 943
935 468
496 302
138 217
312 474
279 419
800 544
396 939
154 406
311 848
459 285
641 548
594 361
810 309
819 462
95 289
276 623
422 232
819 521
873 437
719 420
773 456
683 410
920 467
417 326
644 477
162 395
871 461
776 283
217 460
788 514
612 310
861 888
468 282
304 446
791 933
258 555
419 744
115 446
135 381
261 170
909 117
793 414
614 360
913 109
766 397
265 707
877 100
536 231
817 340
417 218
748 813
824 35
743 743
283 811
189 312
908 441
158 431
351 143
833 643
422 303
843 422
237 491
263 802
80 337
91 178
624 426
555 469
358 386
261 627
752 386
611 185
775 496
883 294
262 76
404 804
912 367
277 883
786 806
730 507
510 244
